c input_v4/product/cnf_noALO_v4/10x10_120.cnf
c p 1560
c cnf 7872
s SATISFIABLE
c process-time: 0.01 seconds
-----
c input_v4/product/cnf_noALO_v4/10x10_121.cnf
c p 1560
c cnf 7688
s SATISFIABLE
c process-time: 0.00 seconds
-----
c input_v4/product/cnf_noALO_v4/10x10_122.cnf
c p 1560
c cnf 7743
s SATISFIABLE
c process-time: 0.00 seconds
-----
c input_v4/product/cnf_noALO_v4/10x10_123.cnf
c p 1646
c cnf 8374
s SATISFIABLE
c process-time: 0.00 seconds
-----
c input_v4/product/cnf_noALO_v4/10x10_124.cnf
c p 1560
c cnf 7706
s SATISFIABLE
c process-time: 0.00 seconds
-----
c input_v4/product/cnf_noALO_v4/10x10_130.cnf
c p 1560
c cnf 7577
s SATISFIABLE
c process-time: 0.00 seconds
-----
c input_v4/product/cnf_noALO_v4/10x10_131.cnf
c p 1304
c cnf 6407
s SATISFIABLE
c process-time: 0.00 seconds
-----
c input_v4/product/cnf_noALO_v4/10x10_132.cnf
c p 1392
c cnf 7039
s SATISFIABLE
c process-time: 0.00 seconds
-----
c input_v4/product/cnf_noALO_v4/10x10_133.cnf
c p 1646
c cnf 8497
s SATISFIABLE
c process-time: 0.00 seconds
-----
c input_v4/product/cnf_noALO_v4/10x10_134.cnf
c p 1304
c cnf 6436
s SATISFIABLE
c process-time: 0.00 seconds
-----
c input_v4/product/cnf_noALO_v4/10x10_135.cnf
c p 1392
c cnf 7006
s SATISFIABLE
c process-time: 0.00 seconds
-----
c input_v4/product/cnf_noALO_v4/10x10_136.cnf
c p 1560
c cnf 7780
s SATISFIABLE
c process-time: 0.00 seconds
-----
c input_v4/product/cnf_noALO_v4/10x10_137.cnf
c p 1560
c cnf 7780
s SATISFIABLE
c process-time: 0.00 seconds
-----
c input_v4/product/cnf_noALO_v4/10x10_138.cnf
c p 1646
c cnf 8415
s SATISFIABLE
c process-time: 0.00 seconds
-----
c input_v4/product/cnf_noALO_v4/10x10_139.cnf
c p 1392
c cnf 6924
s SATISFIABLE
c process-time: 0.01 seconds
-----
c input_v4/product/cnf_noALO_v4/10x10_140.cnf
c p 1646
c cnf 8292
s SATISFIABLE
c process-time: 0.00 seconds
-----
c input_v4/product/cnf_noALO_v4/10x10_141.cnf
c p 1560
c cnf 7853
s SATISFIABLE
c process-time: 0.00 seconds
-----
c input_v4/product/cnf_noALO_v4/10x10_142.cnf
c p 1560
c cnf 7798
s SATISFIABLE
c process-time: 0.00 seconds
-----
c input_v4/product/cnf_noALO_v4/10x10_143.cnf
c p 1392
c cnf 6907
s SATISFIABLE
c process-time: 0.00 seconds
-----
c input_v4/product/cnf_noALO_v4/10x10_144.cnf
c p 1646
c cnf 8129
s SATISFIABLE
c process-time: 0.00 seconds
-----
c input_v4/product/cnf_noALO_v4/10x10_145.cnf
c p 1646
c cnf 8251
s SATISFIABLE
c process-time: 0.00 seconds
-----
c input_v4/product/cnf_noALO_v4/10x15_387.cnf
c p 2410
c cnf 12627
s SATISFIABLE
c process-time: 0.02 seconds
-----
c input_v4/product/cnf_noALO_v4/10x15_388.cnf
c p 2142
c cnf 11529
s SATISFIABLE
c process-time: 0.05 seconds
-----
c input_v4/product/cnf_noALO_v4/10x15_389.cnf
c p 2004
c cnf 10329
s SATISFIABLE
c process-time: 0.17 seconds
-----
c input_v4/product/cnf_noALO_v4/10x15_390.cnf
c p 2410
c cnf 12812
s SATISFIABLE
c process-time: 0.19 seconds
-----
c input_v4/product/cnf_noALO_v4/10x15_396.cnf
c p 2004
c cnf 10344
s SATISFIABLE
c process-time: 0.14 seconds
-----
c input_v4/product/cnf_noALO_v4/10x15_397.cnf
c p 2142
c cnf 11347
s SATISFIABLE
c process-time: 0.07 seconds
-----
c input_v4/product/cnf_noALO_v4/10x15_398.cnf
c p 2004
c cnf 10315
s SATISFIABLE
c process-time: 1s 0.93 seconds
-----
c input_v4/product/cnf_noALO_v4/10x15_399.cnf
c p 2142
c cnf 11363
s SATISFIABLE
c process-time: 0.02 seconds
-----
c input_v4/product/cnf_noALO_v4/10x15_400.cnf
c p 2004
c cnf 10344
s SATISFIABLE
c process-time: 0.24 seconds
-----
c input_v4/product/cnf_noALO_v4/10x18_186.cnf
c p 3572
c cnf 19678
s SATISFIABLE
c process-time: 0.14 seconds
-----
c input_v4/product/cnf_noALO_v4/10x18_187.cnf
c p 2920
c cnf 15860
s SATISFIABLE
c process-time: 2s 2.29 seconds
-----
c input_v4/product/cnf_noALO_v4/10x18_198.cnf
c p 4064
c cnf 23101
s SATISFIABLE
c process-time: 0.04 seconds
-----
c input_v4/product/cnf_noALO_v4/10x18_199.cnf
c p 3572
c cnf 19824
s SATISFIABLE
c process-time: 0.02 seconds
-----
c input_v4/product/cnf_noALO_v4/10x18_200.cnf
c p 3252
c cnf 18122
s SATISFIABLE
c process-time: 0.39 seconds
-----
c input_v4/product/cnf_noALO_v4/10x18_208.cnf
c p 3736
c cnf 21250
s SATISFIABLE
c process-time: 0.01 seconds
-----
c input_v4/product/cnf_noALO_v4/10x18_209.cnf
c p 3252
c cnf 18436
s SATISFIABLE
c process-time: 0.08 seconds
-----
c input_v4/product/cnf_noALO_v4/10x18_414.cnf
c p 4374
c cnf 24430
s SATISFIABLE
c process-time: 0.02 seconds
-----
c input_v4/product/cnf_noALO_v4/10x18_415.cnf
c p 4064
c cnf 22858
s SATISFIABLE
c process-time: 0.01 seconds
-----
c input_v4/product/cnf_noALO_v4/10x18_416.cnf
c p 2920
c cnf 15675
s SATISFIABLE
c process-time: 0.17 seconds
-----
c input_v4/product/cnf_noALO_v4/10x18_417.cnf
c p 3252
c cnf 18078
s SATISFIABLE
c process-time: 1s 0.67 seconds
-----
c input_v4/product/cnf_noALO_v4/11x11_120.cnf
c p 2131
c cnf 11177
s SATISFIABLE
c process-time: 0.00 seconds
-----
c input_v4/product/cnf_noALO_v4/11x11_121.cnf
c p 1707
c cnf 8779
s SATISFIABLE
c process-time: 0.00 seconds
-----
c input_v4/product/cnf_noALO_v4/11x11_122.cnf
c p 1598
c cnf 8099
s SATISFIABLE
c process-time: 0.00 seconds
-----
c input_v4/product/cnf_noALO_v4/11x11_123.cnf
c p 2131
c cnf 11178
s SATISFIABLE
c process-time: 0.02 seconds
-----
c input_v4/product/cnf_noALO_v4/11x11_124.cnf
c p 2131
c cnf 11133
s SATISFIABLE
c process-time: 0.00 seconds
-----
c input_v4/product/cnf_noALO_v4/11x11_130.cnf
c p 1917
c cnf 9835
s SATISFIABLE
c process-time: 0.01 seconds
-----
c input_v4/product/cnf_noALO_v4/11x11_131.cnf
c p 2131
c cnf 11088
s SATISFIABLE
c process-time: 0.01 seconds
-----
c input_v4/product/cnf_noALO_v4/11x11_132.cnf
c p 2024
c cnf 10595
s SATISFIABLE
c process-time: 0.04 seconds
-----
c input_v4/product/cnf_noALO_v4/11x11_133.cnf
c p 1917
c cnf 9854
s SATISFIABLE
c process-time: 0.01 seconds
-----
c input_v4/product/cnf_noALO_v4/11x11_134.cnf
c p 2131
c cnf 11178
s SATISFIABLE
c process-time: 0.02 seconds
-----
c input_v4/product/cnf_noALO_v4/11x11_135.cnf
c p 2131
c cnf 11043
s SATISFIABLE
c process-time: 0.01 seconds
-----
c input_v4/product/cnf_noALO_v4/11x11_136.cnf
c p 1598
c cnf 8027
s SATISFIABLE
c process-time: 0.02 seconds
-----
c input_v4/product/cnf_noALO_v4/11x11_137.cnf
c p 2131
c cnf 11379
s SATISFIABLE
c process-time: 0.01 seconds
-----
c input_v4/product/cnf_noALO_v4/11x11_138.cnf
c p 2131
c cnf 11178
s SATISFIABLE
c process-time: 0.00 seconds
-----
c input_v4/product/cnf_noALO_v4/11x11_139.cnf
c p 1707
c cnf 8779
s SATISFIABLE
c process-time: 0.01 seconds
-----
c input_v4/product/cnf_noALO_v4/11x11_140.cnf
c p 2131
c cnf 11357
s SATISFIABLE
c process-time: 0.00 seconds
-----
c input_v4/product/cnf_noALO_v4/11x11_141.cnf
c p 1707
c cnf 8795
s SATISFIABLE
c process-time: 0.01 seconds
-----
c input_v4/product/cnf_noALO_v4/11x11_142.cnf
c p 1917
c cnf 9780
s SATISFIABLE
c process-time: 0.00 seconds
-----
c input_v4/product/cnf_noALO_v4/11x11_143.cnf
c p 1707
c cnf 8894
s SATISFIABLE
c process-time: 0.01 seconds
-----
c input_v4/product/cnf_noALO_v4/11x11_144.cnf
c p 1917
c cnf 9780
s SATISFIABLE
c process-time: 0.01 seconds
-----
c input_v4/product/cnf_noALO_v4/11x11_145.cnf
c p 1917
c cnf 9872
s SATISFIABLE
c process-time: 0.00 seconds
-----
c input_v4/product/cnf_noALO_v4/12x12_120.cnf
c p 2944
c cnf 15988
s SATISFIABLE
c process-time: 0.01 seconds
-----
c input_v4/product/cnf_noALO_v4/12x12_121.cnf
c p 2308
c cnf 12127
s SATISFIABLE
c process-time: 0.24 seconds
-----
c input_v4/product/cnf_noALO_v4/12x12_122.cnf
c p 2816
c cnf 15251
s SATISFIABLE
c process-time: 0.01 seconds
-----
c input_v4/product/cnf_noALO_v4/12x12_123.cnf
c p 2438
c cnf 13094
s SATISFIABLE
c process-time: 0.00 seconds
-----
c input_v4/product/cnf_noALO_v4/12x12_124.cnf
c p 2816
c cnf 15178
s SATISFIABLE
c process-time: 0.01 seconds
-----
c input_v4/product/cnf_noALO_v4/12x12_130.cnf
c p 2816
c cnf 15177
s SATISFIABLE
c process-time: 0.01 seconds
-----
c input_v4/product/cnf_noALO_v4/12x12_131.cnf
c p 2308
c cnf 12219
s SATISFIABLE
c process-time: 0.01 seconds
-----
c input_v4/product/cnf_noALO_v4/12x12_132.cnf
c p 2816
c cnf 15006
s SATISFIABLE
c process-time: 0.01 seconds
-----
c input_v4/product/cnf_noALO_v4/12x12_133.cnf
c p 2816
c cnf 14884
s SATISFIABLE
c process-time: 0.01 seconds
-----
c input_v4/product/cnf_noALO_v4/12x12_134.cnf
c p 2568
c cnf 14177
s SATISFIABLE
c process-time: 0.01 seconds
-----
c input_v4/product/cnf_noALO_v4/12x12_135.cnf
c p 2438
c cnf 13033
s SATISFIABLE
c process-time: 0.01 seconds
-----
c input_v4/product/cnf_noALO_v4/12x12_136.cnf
c p 2568
c cnf 13952
s SATISFIABLE
c process-time: 0.01 seconds
-----
c input_v4/product/cnf_noALO_v4/12x12_137.cnf
c p 2438
c cnf 13115
s SATISFIABLE
c process-time: 0.01 seconds
-----
c input_v4/product/cnf_noALO_v4/12x12_138.cnf
c p 2438
c cnf 13115
s SATISFIABLE
c process-time: 0.01 seconds
-----
c input_v4/product/cnf_noALO_v4/12x12_139.cnf
c p 2568
c cnf 13930
s SATISFIABLE
c process-time: 0.02 seconds
-----
c input_v4/product/cnf_noALO_v4/12x12_140.cnf
c p 2438
c cnf 12972
s SATISFIABLE
c process-time: 0.01 seconds
-----
c input_v4/product/cnf_noALO_v4/12x12_141.cnf
c p 2438
c cnf 13176
s SATISFIABLE
c process-time: 0.00 seconds
-----
c input_v4/product/cnf_noALO_v4/12x12_142.cnf
c p 2052
c cnf 10876
s SATISFIABLE
c process-time: 0.01 seconds
-----
c input_v4/product/cnf_noALO_v4/12x12_143.cnf
c p 2944
c cnf 15855
s SATISFIABLE
c process-time: 0.01 seconds
-----
c input_v4/product/cnf_noALO_v4/12x12_144.cnf
c p 2308
c cnf 12219
s SATISFIABLE
c process-time: 0.01 seconds
-----
c input_v4/product/cnf_noALO_v4/12x12_145.cnf
c p 2438
c cnf 13054
s SATISFIABLE
c process-time: 0.01 seconds
-----
c input_v4/product/cnf_noALO_v4/12x15_39.cnf
c p 3900
c cnf 22039
s SATISFIABLE
c process-time: 0.01 seconds
-----
c input_v4/product/cnf_noALO_v4/12x15_43.cnf
c p 3572
c cnf 19855
s SATISFIABLE
c process-time: 0.17 seconds
-----
c input_v4/product/cnf_noALO_v4/12x15_45.cnf
c p 2920
c cnf 15755
s SATISFIABLE
c process-time: 1s 0.62 seconds
-----
c input_v4/product/cnf_noALO_v4/12x15_46.cnf
c p 3086
c cnf 17012
s SATISFIABLE
c process-time: 0.04 seconds
-----
c input_v4/product/cnf_noALO_v4/12x23_210.cnf
c p 8904
c cnf 54565
s SATISFIABLE
c process-time: 0.02 seconds
-----
c input_v4/product/cnf_noALO_v4/13x13_120.cnf
c p 3341
c cnf 18593
s SATISFIABLE
c process-time: 0.01 seconds
-----
c input_v4/product/cnf_noALO_v4/13x13_121.cnf
c p 3043
c cnf 16873
s SATISFIABLE
c process-time: 0.02 seconds
-----
c input_v4/product/cnf_noALO_v4/13x13_122.cnf
c p 2733
c cnf 14729
s SATISFIABLE
c process-time: 0.22 seconds
-----
c input_v4/product/cnf_noALO_v4/13x13_123.cnf
c p 3494
c cnf 19458
s SATISFIABLE
c process-time: 0.01 seconds
-----
c input_v4/product/cnf_noALO_v4/13x13_124.cnf
c p 3341
c cnf 18446
s SATISFIABLE
c process-time: 0.07 seconds
-----
c input_v4/product/cnf_noALO_v4/13x13_130.cnf
c p 3341
c cnf 18519
s SATISFIABLE
c process-time: 0.16 seconds
-----
c input_v4/product/cnf_noALO_v4/13x13_131.cnf
c p 3043
c cnf 17053
s SATISFIABLE
c process-time: 0.02 seconds
-----
c input_v4/product/cnf_noALO_v4/13x13_132.cnf
c p 3494
c cnf 19432
s SATISFIABLE
c process-time: 0.05 seconds
-----
c input_v4/product/cnf_noALO_v4/13x13_133.cnf
c p 3043
c cnf 16963
s SATISFIABLE
c process-time: 0.17 seconds
-----
c input_v4/product/cnf_noALO_v4/13x13_134.cnf
c p 2888
c cnf 15812
s SATISFIABLE
c process-time: 2s 1.83 seconds
-----
c input_v4/product/cnf_noALO_v4/13x13_135.cnf
c p 3043
c cnf 16851
s SATISFIABLE
c process-time: 0.16 seconds
-----
c input_v4/product/cnf_noALO_v4/13x13_136.cnf
c p 3341
c cnf 18373
s SATISFIABLE
c process-time: 0.17 seconds
-----
c input_v4/product/cnf_noALO_v4/13x13_137.cnf
c p 3341
c cnf 18373
s SATISFIABLE
c process-time: 0.11 seconds
-----
c input_v4/product/cnf_noALO_v4/13x13_138.cnf
c p 3494
c cnf 19379
s SATISFIABLE
c process-time: 0.01 seconds
-----
c input_v4/product/cnf_noALO_v4/13x13_139.cnf
c p 3647
c cnf 20434
s SATISFIABLE
c process-time: 0.05 seconds
-----
c input_v4/product/cnf_noALO_v4/13x13_140.cnf
c p 3043
c cnf 17300
s SATISFIABLE
c process-time: 0.01 seconds
-----
c input_v4/product/cnf_noALO_v4/13x13_141.cnf
c p 2888
c cnf 16017
s SATISFIABLE
c process-time: 0.01 seconds
-----
c input_v4/product/cnf_noALO_v4/13x13_142.cnf
c p 2888
c cnf 15730
s SATISFIABLE
c process-time: 0.25 seconds
-----
c input_v4/product/cnf_noALO_v4/13x13_143.cnf
c p 2888
c cnf 15812
s SATISFIABLE
c process-time: 0.14 seconds
-----
c input_v4/product/cnf_noALO_v4/13x13_144.cnf
c p 3647
c cnf 20605
s SATISFIABLE
c process-time: 0.01 seconds
-----
c input_v4/product/cnf_noALO_v4/13x13_145.cnf
c p 3494
c cnf 19485
s SATISFIABLE
c process-time: 0.02 seconds
-----
c input_v4/product/cnf_noALO_v4/14x14_120.cnf
c p 4088
c cnf 23312
s SATISFIABLE
c process-time: 0.09 seconds
-----
c input_v4/product/cnf_noALO_v4/14x14_121.cnf
c p 4268
c cnf 24739
s SATISFIABLE
c process-time: 0.03 seconds
-----
c input_v4/product/cnf_noALO_v4/14x14_122.cnf
c p 4268
c cnf 24710
s SATISFIABLE
c process-time: 0.07 seconds
-----
c input_v4/product/cnf_noALO_v4/14x14_123.cnf
c p 3908
c cnf 21999
s SATISFIABLE
c process-time: 0.22 seconds
-----
c input_v4/product/cnf_noALO_v4/14x14_124.cnf
c p 4088
c cnf 23285
s SATISFIABLE
c process-time: 0.02 seconds
-----
c input_v4/product/cnf_noALO_v4/14x14_130.cnf
c p 3908
c cnf 22267
s SATISFIABLE
c process-time: 0.01 seconds
-----
c input_v4/product/cnf_noALO_v4/14x14_131.cnf
c p 4268
c cnf 24739
s SATISFIABLE
c process-time: 0.01 seconds
-----
c input_v4/product/cnf_noALO_v4/14x14_132.cnf
c p 4448
c cnf 26006
s SATISFIABLE
c process-time: 0.02 seconds
-----
c input_v4/product/cnf_noALO_v4/14x14_133.cnf
c p 4448
c cnf 25701
s SATISFIABLE
c process-time: 0.17 seconds
-----
c input_v4/product/cnf_noALO_v4/14x14_134.cnf
c p 4268
c cnf 24653
s SATISFIABLE
c process-time: 2s 1.50 seconds
-----
c input_v4/product/cnf_noALO_v4/14x14_135.cnf
c p 3556
c cnf 20411
s SATISFIABLE
c process-time: 0.03 seconds
-----
c input_v4/product/cnf_noALO_v4/14x14_136.cnf
c p 3556
c cnf 20366
s SATISFIABLE
c process-time: 0.35 seconds
-----
c input_v4/product/cnf_noALO_v4/14x14_137.cnf
c p 4268
c cnf 24568
s SATISFIABLE
c process-time: 0.01 seconds
-----
c input_v4/product/cnf_noALO_v4/14x14_138.cnf
c p 4268
c cnf 24938
s SATISFIABLE
c process-time: 0.02 seconds
-----
c input_v4/product/cnf_noALO_v4/14x14_139.cnf
c p 4088
c cnf 23576
s SATISFIABLE
c process-time: 0.26 seconds
-----
c input_v4/product/cnf_noALO_v4/14x14_140.cnf
c p 4448
c cnf 25975
s SATISFIABLE
c process-time: 0.02 seconds
-----
c input_v4/product/cnf_noALO_v4/14x14_141.cnf
c p 4448
c cnf 25671
s SATISFIABLE
c process-time: 0.01 seconds
-----
c input_v4/product/cnf_noALO_v4/14x14_142.cnf
c p 4268
c cnf 24796
s SATISFIABLE
c process-time: 0.04 seconds
-----
c input_v4/product/cnf_noALO_v4/14x14_143.cnf
c p 4268
c cnf 24483
s SATISFIABLE
c process-time: 0.10 seconds
-----
c input_v4/product/cnf_noALO_v4/14x14_144.cnf
c p 3556
c cnf 20366
s SATISFIABLE
c process-time: 0.07 seconds
-----
c input_v4/product/cnf_noALO_v4/14x14_145.cnf
c p 4448
c cnf 25944
s SATISFIABLE
c process-time: 0.01 seconds
-----
c input_v4/product/cnf_noALO_v4/14x24_105.cnf
c p 10312
c cnf 65056
s SATISFIABLE
c process-time: 8s 7.72 seconds
-----
c input_v4/product/cnf_noALO_v4/14x24_110.cnf
c p 9384
c cnf 59250
s SATISFIABLE
c process-time: 3s 3.26 seconds
-----
c input_v4/product/cnf_noALO_v4/14x24_113.cnf
c p 10944
c cnf 69589
s SATISFIABLE
c process-time: 1s 0.75 seconds
-----
c input_v4/product/cnf_noALO_v4/14x24_117.cnf
c p 9066
c cnf 56971
s SATISFIABLE
c process-time: 14s 14.46 seconds
-----
c input_v4/product/cnf_noALO_v4/14x24_129.cnf
c p 9384
c cnf 59365
s SATISFIABLE
c process-time: 11s 11.19 seconds
-----
c input_v4/product/cnf_noALO_v4/14x24_139.cnf
c p 9384
c cnf 59481
s SATISFIABLE
c process-time: 2s 1.79 seconds
-----
c input_v4/product/cnf_noALO_v4/14x24_147.cnf
c p 9996
c cnf 62580
s SATISFIABLE
c process-time: 2s 2.18 seconds
-----
c input_v4/product/cnf_noALO_v4/14x24_148.cnf
c p 7488
c cnf 46105
s SATISFIABLE
c process-time: 9s 9.48 seconds
-----
c input_v4/product/cnf_noALO_v4/14x24_157.cnf
c p 7808
c cnf 48714
s SATISFIABLE
c process-time: 1s 1.12 seconds
-----
c input_v4/product/cnf_noALO_v4/14x24_158.cnf
c p 6848
c cnf 40692
s SATISFIABLE
c process-time: 6s 5.64 seconds
-----
c input_v4/product/cnf_noALO_v4/14x24_169.cnf
c p 7488
c cnf 45963
s SATISFIABLE
c process-time: 7m 36s 456.26 seconds
-----
c input_v4/product/cnf_noALO_v4/14x24_179.cnf
c p 6848
c cnf 40814
s SATISFIABLE
c process-time: 3s 3.12 seconds
-----
c input_v4/product/cnf_noALO_v4/14x24_188.cnf
c p 10312
c cnf 65438
s SATISFIABLE
c process-time: 2s 2.12 seconds
-----
c input_v4/product/cnf_noALO_v4/14x24_189.cnf
c p 11860
c cnf 74960
s SATISFIABLE
c process-time: 1s 1.48 seconds
-----
c input_v4/product/cnf_noALO_v4/14x24_190.cnf
c p 6848
c cnf 40741
s SATISFIABLE
c process-time: 1s 0.82 seconds
-----
c input_v4/product/cnf_noALO_v4/14x24_199.cnf
c p 6216
c cnf 37197
s SATISFIABLE
c process-time: 6s 5.82 seconds
-----
c input_v4/product/cnf_noALO_v4/14x24_200.cnf
c p 7168
c cnf 43366
s SATISFIABLE
c process-time: 24s 23.96 seconds
-----
c input_v4/product/cnf_noALO_v4/14x24_208.cnf
c p 9384
c cnf 59327
s SATISFIABLE
c process-time: 5s 5.13 seconds
-----
c input_v4/product/cnf_noALO_v4/14x24_209.cnf
c p 7168
c cnf 43419
s SATISFIABLE
c process-time: 1s 1.25 seconds
-----
c input_v4/product/cnf_noALO_v4/14x24_218.cnf
c p 9384
c cnf 59596
s SATISFIABLE
c process-time: 9s 8.54 seconds
-----
c input_v4/product/cnf_noALO_v4/14x24_219.cnf
c p 7488
c cnf 45934
s SATISFIABLE
c process-time: 3s 3.30 seconds
-----
c input_v4/product/cnf_noALO_v4/14x24_418.cnf
c p 8748
c cnf 54957
s SATISFIABLE
c process-time: 4s 4.04 seconds
-----
c input_v4/product/cnf_noALO_v4/14x24_419.cnf
c p 10944
c cnf 69264
s SATISFIABLE
c process-time: 0.33 seconds
-----
c input_v4/product/cnf_noALO_v4/14x24_420.cnf
c p 7168
c cnf 43392
s SATISFIABLE
c process-time: 5m 12s 312.45 seconds
-----
c input_v4/product/cnf_noALO_v4/15x15_120.cnf
c p 5144
c cnf 30799
s SATISFIABLE
c process-time: 0.24 seconds
-----
c input_v4/product/cnf_noALO_v4/15x15_121.cnf
c p 4517
c cnf 25982
s SATISFIABLE
c process-time: 0.15 seconds
-----
c input_v4/product/cnf_noALO_v4/15x15_122.cnf
c p 4935
c cnf 29055
s SATISFIABLE
c process-time: 0.16 seconds
-----
c input_v4/product/cnf_noALO_v4/15x15_123.cnf
c p 5144
c cnf 30555
s SATISFIABLE
c process-time: 0.21 seconds
-----
c input_v4/product/cnf_noALO_v4/15x15_124.cnf
c p 5144
c cnf 30525
s SATISFIABLE
c process-time: 1s 1.22 seconds
-----
c input_v4/product/cnf_noALO_v4/15x15_130.cnf
c p 4935
c cnf 29083
s SATISFIABLE
c process-time: 0.04 seconds
-----
c input_v4/product/cnf_noALO_v4/15x15_131.cnf
c p 5144
c cnf 30433
s SATISFIABLE
c process-time: 0.14 seconds
-----
c input_v4/product/cnf_noALO_v4/15x15_132.cnf
c p 5144
c cnf 30555
s SATISFIABLE
c process-time: 0.04 seconds
-----
c input_v4/product/cnf_noALO_v4/15x15_133.cnf
c p 5144
c cnf 30403
s SATISFIABLE
c process-time: 1s 0.62 seconds
-----
c input_v4/product/cnf_noALO_v4/15x15_134.cnf
c p 4726
c cnf 27549
s SATISFIABLE
c process-time: 0.16 seconds
-----
c input_v4/product/cnf_noALO_v4/15x15_135.cnf
c p 5144
c cnf 30555
s SATISFIABLE
c process-time: 0.14 seconds
-----
c input_v4/product/cnf_noALO_v4/15x15_136.cnf
c p 5144
c cnf 30707
s SATISFIABLE
c process-time: 0.20 seconds
-----
c input_v4/product/cnf_noALO_v4/15x15_137.cnf
c p 5144
c cnf 30768
s SATISFIABLE
c process-time: 1s 0.52 seconds
-----
c input_v4/product/cnf_noALO_v4/15x15_138.cnf
c p 5144
c cnf 30555
s SATISFIABLE
c process-time: 0.13 seconds
-----
c input_v4/product/cnf_noALO_v4/15x15_139.cnf
c p 4935
c cnf 28998
s SATISFIABLE
c process-time: 0.13 seconds
-----
c input_v4/product/cnf_noALO_v4/15x15_140.cnf
c p 5144
c cnf 30616
s SATISFIABLE
c process-time: 0.08 seconds
-----
c input_v4/product/cnf_noALO_v4/15x15_141.cnf
c p 5144
c cnf 30616
s SATISFIABLE
c process-time: 0.47 seconds
-----
c input_v4/product/cnf_noALO_v4/15x15_142.cnf
c p 5144
c cnf 30464
s SATISFIABLE
c process-time: 1s 0.60 seconds
-----
c input_v4/product/cnf_noALO_v4/15x15_143.cnf
c p 5144
c cnf 30890
s SATISFIABLE
c process-time: 0.22 seconds
-----
c input_v4/product/cnf_noALO_v4/15x15_144.cnf
c p 5144
c cnf 30708
s SATISFIABLE
c process-time: 1s 0.68 seconds
-----
c input_v4/product/cnf_noALO_v4/15x15_145.cnf
c p 4935
c cnf 29225
s SATISFIABLE
c process-time: 0.07 seconds
-----
c input_v4/product/cnf_noALO_v4/15x20_307.cnf
c p 5246
c cnf 30588
c process-time: 15m 899.71 seconds
UNKNOWN
-----
c input_v4/product/cnf_noALO_v4/15x20_308.cnf
c p 5532
c cnf 32931
s SATISFIABLE
c process-time: 23s 22.52 seconds
-----
c input_v4/product/cnf_noALO_v4/15x20_309.cnf
c p 5246
c cnf 30752
c process-time: 15m 899.79 seconds
UNKNOWN
-----
c input_v4/product/cnf_noALO_v4/15x20_310.cnf
c p 6660
c cnf 40491
s SATISFIABLE
c process-time: 19s 19.49 seconds
-----
c input_v4/product/cnf_noALO_v4/15x20_317.cnf
c p 6660
c cnf 40320
s SATISFIABLE
c process-time: 2s 2.02 seconds
-----
c input_v4/product/cnf_noALO_v4/15x20_318.cnf
c p 6660
c cnf 40377
s SATISFIABLE
c process-time: 7s 7.25 seconds
-----
c input_v4/product/cnf_noALO_v4/15x20_319.cnf
c p 6376
c cnf 38124
s SATISFIABLE
c process-time: 8m 40s 519.97 seconds
-----
c input_v4/product/cnf_noALO_v4/15x20_320.cnf
c p 6376
c cnf 38203
s SATISFIABLE
c process-time: 54s 54.47 seconds
-----
c input_v4/product/cnf_noALO_v4/17x17_100.cnf
c p 5323
c cnf 31608
s SATISFIABLE
c process-time: 1s 0.91 seconds
-----
c input_v4/product/cnf_noALO_v4/17x17_104.cnf
c p 8021
c cnf 50123
s SATISFIABLE
c process-time: 2s 1.85 seconds
-----
c input_v4/product/cnf_noALO_v4/17x17_109.cnf
c p 7750
c cnf 47933
s SATISFIABLE
c process-time: 0.45 seconds
-----
c input_v4/product/cnf_noALO_v4/17x17_112.cnf
c p 8539
c cnf 52685
s SATISFIABLE
c process-time: 0.24 seconds
-----
c input_v4/product/cnf_noALO_v4/17x17_116.cnf
c p 7479
c cnf 45908
s SATISFIABLE
c process-time: 0.33 seconds
-----
c input_v4/product/cnf_noALO_v4/17x17_120.cnf
c p 5861
c cnf 34483
s SATISFIABLE
c process-time: 16s 16.28 seconds
-----
c input_v4/product/cnf_noALO_v4/17x17_128.cnf
c p 5861
c cnf 34777
s SATISFIABLE
c process-time: 3s 2.66 seconds
-----
c input_v4/product/cnf_noALO_v4/17x17_136.cnf
c p 7750
c cnf 48224
s SATISFIABLE
c process-time: 0.24 seconds
-----
c input_v4/product/cnf_noALO_v4/17x17_138.cnf
c p 5323
c cnf 31518
s SATISFIABLE
c process-time: 1s 1.27 seconds
-----
c input_v4/product/cnf_noALO_v4/17x17_165.cnf
c p 5861
c cnf 34483
s SATISFIABLE
c process-time: 1s 1.35 seconds
-----
c input_v4/product/cnf_noALO_v4/17x17_166.cnf
c p 5323
c cnf 31518
s SATISFIABLE
c process-time: 50s 50.24 seconds
-----
c input_v4/product/cnf_noALO_v4/17x17_167.cnf
c p 10388
c cnf 65344
s SATISFIABLE
c process-time: 0.03 seconds
-----
c input_v4/product/cnf_noALO_v4/17x17_168.cnf
c p 10922
c cnf 68157
s SATISFIABLE
c process-time: 0.14 seconds
-----
c input_v4/product/cnf_noALO_v4/17x17_175.cnf
c p 4773
c cnf 27187
s SATISFIABLE
c process-time: 1s 0.70 seconds
-----
c input_v4/product/cnf_noALO_v4/17x17_176.cnf
c p 4227
c cnf 24060
s SATISFIABLE
c process-time: 5s 5.39 seconds
-----
c input_v4/product/cnf_noALO_v4/17x17_177.cnf
c p 8808
c cnf 54990
s SATISFIABLE
c process-time: 0.31 seconds
-----
c input_v4/product/cnf_noALO_v4/17x17_178.cnf
c p 9615
c cnf 60838
s SATISFIABLE
c process-time: 0.02 seconds
-----
c input_v4/product/cnf_noALO_v4/17x17_187.cnf
c p 5048
c cnf 29408
s SATISFIABLE
c process-time: 2s 2.40 seconds
-----
c input_v4/product/cnf_noALO_v4/17x17_188.cnf
c p 5323
c cnf 31563
s SATISFIABLE
c process-time: 1s 0.71 seconds
-----
c input_v4/product/cnf_noALO_v4/17x17_197.cnf
c p 5323
c cnf 31608
s SATISFIABLE
c process-time: 1s 1.00 seconds
-----
c input_v4/product/cnf_noALO_v4/17x17_198.cnf
c p 4773
c cnf 27021
s SATISFIABLE
c process-time: 1s 0.89 seconds
-----
c input_v4/product/cnf_noALO_v4/17x17_230.cnf
c p 3673
c cnf 19310
s SATISFIABLE
c process-time: 1s 0.59 seconds
-----
c input_v4/product/cnf_noALO_v4/17x17_240.cnf
c p 4773
c cnf 27113
s SATISFIABLE
c process-time: 0.09 seconds
-----
c input_v4/product/cnf_noALO_v4/17x17_250.cnf
c p 12213
c cnf 74917
s SATISFIABLE
c process-time: 0.06 seconds
-----
c input_v4/product/cnf_noALO_v4/17x17_260.cnf
c p 12213
c cnf 75949
s SATISFIABLE
c process-time: 0.16 seconds
-----
c input_v4/product/cnf_noALO_v4/17x17_270.cnf
c p 10922
c cnf 68383
s SATISFIABLE
c process-time: 0.20 seconds
-----
c input_v4/product/cnf_noALO_v4/17x17_429.cnf
c p 7750
c cnf 48042
s SATISFIABLE
c process-time: 0.03 seconds
-----
c input_v4/product/cnf_noALO_v4/17x17_439.cnf
c p 5323
c cnf 31653
s SATISFIABLE
c process-time: 3s 3.28 seconds
-----
c input_v4/product/cnf_noALO_v4/17x17_449.cnf
c p 7208
c cnf 44146
s SATISFIABLE
c process-time: 0.41 seconds
-----
c input_v4/product/cnf_noALO_v4/20x20_430.cnf
c p 14228
c cnf 93590
s SATISFIABLE
c process-time: 12s 12.11 seconds
-----
c input_v4/product/cnf_noALO_v4/20x20_440.cnf
c p 8192
c cnf 49572
c process-time: 15m 899.87 seconds
UNKNOWN
-----
c input_v4/product/cnf_noALO_v4/20x20_450.cnf
c p 9344
c cnf 59040
s SATISFIABLE
c process-time: 6m 27s 387.03 seconds
-----
c input_v4/product/cnf_noALO_v4/20x36_106.cnf
c p 35038
c cnf 250194
c process-time: 15m 899.76 seconds
UNKNOWN
-----
c input_v4/product/cnf_noALO_v4/20x36_114.cnf
c p 35038
c cnf 250557
c process-time: 15m 899.89 seconds
UNKNOWN
-----
c input_v4/product/cnf_noALO_v4/20x36_118.cnf
c p 30216
c cnf 213101
c process-time: 15m 899.93 seconds
UNKNOWN
-----
c input_v4/product/cnf_noALO_v4/20x36_130.cnf
c p 30216
c cnf 213162
c process-time: 15m 899.94 seconds
UNKNOWN
-----
c input_v4/product/cnf_noALO_v4/20x36_140.cnf
c p 30216
c cnf 213222
c process-time: 15m 899.76 seconds
UNKNOWN
-----
c input_v4/product/cnf_noALO_v4/20x36_149.cnf
c p 27464
c cnf 192269
c process-time: 15m 899.80 seconds
UNKNOWN
-----
c input_v4/product/cnf_noALO_v4/20x36_150.cnf
c p 22600
c cnf 153921
c process-time: 15m 899.85 seconds
UNKNOWN
-----
c input_v4/product/cnf_noALO_v4/20x36_159.cnf
c p 30216
c cnf 213343
c process-time: 15m 899.81 seconds
UNKNOWN
-----
c input_v4/product/cnf_noALO_v4/20x36_160.cnf
c p 22600
c cnf 153921
c process-time: 15m 899.79 seconds
UNKNOWN
-----
c input_v4/product/cnf_noALO_v4/20x36_170.cnf
c p 31608
c cnf 224527
c process-time: 15m 899.83 seconds
UNKNOWN
-----
c input_v4/product/cnf_noALO_v4/20x36_180.cnf
c p 22600
c cnf 154006
c process-time: 15m 899.80 seconds
UNKNOWN
-----
c input_v4/product/cnf_noALO_v4/20x36_210.cnf
c p 31608
c cnf 224527
c process-time: 15m 899.79 seconds
UNKNOWN
-----
c input_v4/product/cnf_noALO_v4/20x36_220.cnf
c p 35038
c cnf 249542
c process-time: 15m 899.86 seconds
UNKNOWN
-----
c input_v4/product/cnf_noALO_v4/25x25_60.cnf
c p 21375
c cnf 147147
s SATISFIABLE
c process-time: 21s 20.76 seconds
-----
c input_v4/product/cnf_noALO_v4/25x25_66.cnf
c p 24965
c cnf 174436
s SATISFIABLE
c process-time: 11m 31s 691.05 seconds
-----
c input_v4/product/cnf_noALO_v4/25x25_72.cnf
c p 31486
c cnf 221934
s SATISFIABLE
c process-time: 11m 37s 696.70 seconds
-----
c input_v4/product/cnf_noALO_v4/25x25_78.cnf
c p 26131
c cnf 181926
s SATISFIABLE
c process-time: 5m 36s 335.67 seconds
-----
c input_v4/product/cnf_noALO_v4/25x42_110.cnf
c p 79916
c cnf 602530
s SATISFIABLE
c process-time: 4m 56s 296.02 seconds
-----
c input_v4/product/cnf_noALO_v4/35x48_190.cnf
c p 88000
c cnf 675748
c process-time: 15m 899.91 seconds
UNKNOWN
-----
c input_v4/product/cnf_noALO_v4/6x6_120.cnf
c p 256
c cnf 970
s SATISFIABLE
c process-time: 0.00 seconds
-----
c input_v4/product/cnf_noALO_v4/6x6_121.cnf
c p 336
c cnf 1310
s SATISFIABLE
c process-time: 0.00 seconds
-----
c input_v4/product/cnf_noALO_v4/6x6_122.cnf
c p 310
c cnf 1160
s SATISFIABLE
c process-time: 0.00 seconds
-----
c input_v4/product/cnf_noALO_v4/6x6_123.cnf
c p 310
c cnf 1227
s SATISFIABLE
c process-time: 0.00 seconds
-----
c input_v4/product/cnf_noALO_v4/6x6_124.cnf
c p 310
c cnf 1151
s SATISFIABLE
c process-time: 0.00 seconds
-----
c input_v4/product/cnf_noALO_v4/6x6_125.cnf
c p 310
c cnf 1177
s SATISFIABLE
c process-time: 0.00 seconds
-----
c input_v4/product/cnf_noALO_v4/6x6_130.cnf
c p 256
c cnf 970
s SATISFIABLE
c process-time: 0.00 seconds
-----
c input_v4/product/cnf_noALO_v4/6x6_131.cnf
c p 336
c cnf 1300
s SATISFIABLE
c process-time: 0.00 seconds
-----
c input_v4/product/cnf_noALO_v4/6x6_132.cnf
c p 256
c cnf 957
s SATISFIABLE
c process-time: 0.00 seconds
-----
c input_v4/product/cnf_noALO_v4/6x6_133.cnf
c p 336
c cnf 1269
s SATISFIABLE
c process-time: 0.00 seconds
-----
c input_v4/product/cnf_noALO_v4/6x6_134.cnf
c p 336
c cnf 1290
s SATISFIABLE
c process-time: 0.00 seconds
-----
c input_v4/product/cnf_noALO_v4/6x6_135.cnf
c p 256
c cnf 957
s SATISFIABLE
c process-time: 0.00 seconds
-----
c input_v4/product/cnf_noALO_v4/6x6_136.cnf
c p 256
c cnf 995
s SATISFIABLE
c process-time: 0.00 seconds
-----
c input_v4/product/cnf_noALO_v4/6x6_137.cnf
c p 310
c cnf 1218
s SATISFIABLE
c process-time: 0.00 seconds
-----
c input_v4/product/cnf_noALO_v4/6x6_138.cnf
c p 310
c cnf 1202
s SATISFIABLE
c process-time: 0.00 seconds
-----
c input_v4/product/cnf_noALO_v4/6x6_139.cnf
c p 310
c cnf 1160
s SATISFIABLE
c process-time: 0.00 seconds
-----
c input_v4/product/cnf_noALO_v4/6x6_140.cnf
c p 384
c cnf 1414
s SATISFIABLE
c process-time: 0.00 seconds
-----
c input_v4/product/cnf_noALO_v4/6x6_141.cnf
c p 256
c cnf 957
s SATISFIABLE
c process-time: 0.00 seconds
-----
c input_v4/product/cnf_noALO_v4/6x6_142.cnf
c p 310
c cnf 1168
s SATISFIABLE
c process-time: 0.00 seconds
-----
c input_v4/product/cnf_noALO_v4/6x6_143.cnf
c p 336
c cnf 1320
s SATISFIABLE
c process-time: 0.00 seconds
-----
c input_v4/product/cnf_noALO_v4/6x6_144.cnf
c p 336
c cnf 1332
s SATISFIABLE
c process-time: 0.00 seconds
-----
c input_v4/product/cnf_noALO_v4/6x6_145.cnf
c p 310
c cnf 1177
s SATISFIABLE
c process-time: 0.00 seconds
-----
c input_v4/product/cnf_noALO_v4/7x7_120.cnf
c p 479
c cnf 1921
s SATISFIABLE
c process-time: 0.00 seconds
-----
c input_v4/product/cnf_noALO_v4/7x7_121.cnf
c p 553
c cnf 2327
s SATISFIABLE
c process-time: 0.00 seconds
-----
c input_v4/product/cnf_noALO_v4/7x7_122.cnf
c p 553
c cnf 2364
s SATISFIABLE
c process-time: 0.00 seconds
-----
c input_v4/product/cnf_noALO_v4/7x7_123.cnf
c p 440
c cnf 1723
s SATISFIABLE
c process-time: 0.00 seconds
-----
c input_v4/product/cnf_noALO_v4/7x7_124.cnf
c p 479
c cnf 1994
s SATISFIABLE
c process-time: 0.00 seconds
-----
c input_v4/product/cnf_noALO_v4/7x7_130.cnf
c p 360
c cnf 1477
s SATISFIABLE
c process-time: 0.00 seconds
-----
c input_v4/product/cnf_noALO_v4/7x7_131.cnf
c p 479
c cnf 2046
s SATISFIABLE
c process-time: 0.00 seconds
-----
c input_v4/product/cnf_noALO_v4/7x7_132.cnf
c p 590
c cnf 2491
s SATISFIABLE
c process-time: 0.00 seconds
-----
c input_v4/product/cnf_noALO_v4/7x7_133.cnf
c p 479
c cnf 2077
s SATISFIABLE
c process-time: 0.00 seconds
-----
c input_v4/product/cnf_noALO_v4/7x7_134.cnf
c p 440
c cnf 1765
s SATISFIABLE
c process-time: 0.00 seconds
-----
c input_v4/product/cnf_noALO_v4/7x7_135.cnf
c p 553
c cnf 2401
s SATISFIABLE
c process-time: 0.00 seconds
-----
c input_v4/product/cnf_noALO_v4/7x7_136.cnf
c p 440
c cnf 1757
s SATISFIABLE
c process-time: 0.00 seconds
-----
c input_v4/product/cnf_noALO_v4/7x7_137.cnf
c p 440
c cnf 1782
s SATISFIABLE
c process-time: 0.00 seconds
-----
c input_v4/product/cnf_noALO_v4/7x7_138.cnf
c p 479
c cnf 2015
s SATISFIABLE
c process-time: 0.00 seconds
-----
c input_v4/product/cnf_noALO_v4/7x7_139.cnf
c p 479
c cnf 2046
s SATISFIABLE
c process-time: 0.00 seconds
-----
c input_v4/product/cnf_noALO_v4/7x7_140.cnf
c p 479
c cnf 1984
s SATISFIABLE
c process-time: 0.00 seconds
-----
c input_v4/product/cnf_noALO_v4/7x7_141.cnf
c p 479
c cnf 1994
s SATISFIABLE
c process-time: 0.00 seconds
-----
c input_v4/product/cnf_noALO_v4/7x7_142.cnf
c p 479
c cnf 2015
s SATISFIABLE
c process-time: 0.00 seconds
-----
c input_v4/product/cnf_noALO_v4/7x7_143.cnf
c p 553
c cnf 2402
s SATISFIABLE
c process-time: 0.00 seconds
-----
c input_v4/product/cnf_noALO_v4/7x7_144.cnf
c p 479
c cnf 2015
s SATISFIABLE
c process-time: 0.00 seconds
-----
c input_v4/product/cnf_noALO_v4/7x7_145.cnf
c p 479
c cnf 1983
s SATISFIABLE
c process-time: 0.00 seconds
-----
c input_v4/product/cnf_noALO_v4/8x8_120.cnf
c p 800
c cnf 3552
s SATISFIABLE
c process-time: 0.00 seconds
-----
c input_v4/product/cnf_noALO_v4/8x8_121.cnf
c p 800
c cnf 3553
s SATISFIABLE
c process-time: 0.00 seconds
-----
c input_v4/product/cnf_noALO_v4/8x8_122.cnf
c p 800
c cnf 3668
s SATISFIABLE
c process-time: 0.00 seconds
-----
c input_v4/product/cnf_noALO_v4/8x8_123.cnf
c p 800
c cnf 3509
s SATISFIABLE
c process-time: 0.00 seconds
-----
c input_v4/product/cnf_noALO_v4/8x8_124.cnf
c p 644
c cnf 2952
s SATISFIABLE
c process-time: 0.00 seconds
-----
c input_v4/product/cnf_noALO_v4/8x8_130.cnf
c p 644
c cnf 2837
s SATISFIABLE
c process-time: 0.00 seconds
-----
c input_v4/product/cnf_noALO_v4/8x8_131.cnf
c p 800
c cnf 3552
s SATISFIABLE
c process-time: 0.00 seconds
-----
c input_v4/product/cnf_noALO_v4/8x8_132.cnf
c p 748
c cnf 3218
s SATISFIABLE
c process-time: 0.00 seconds
-----
c input_v4/product/cnf_noALO_v4/8x8_133.cnf
c p 644
c cnf 2879
s SATISFIABLE
c process-time: 0.00 seconds
-----
c input_v4/product/cnf_noALO_v4/8x8_134.cnf
c p 800
c cnf 3480
s SATISFIABLE
c process-time: 0.00 seconds
-----
c input_v4/product/cnf_noALO_v4/8x8_135.cnf
c p 644
c cnf 2827
s SATISFIABLE
c process-time: 0.00 seconds
-----
c input_v4/product/cnf_noALO_v4/8x8_136.cnf
c p 748
c cnf 3243
s SATISFIABLE
c process-time: 0.00 seconds
-----
c input_v4/product/cnf_noALO_v4/8x8_137.cnf
c p 800
c cnf 3552
s SATISFIABLE
c process-time: 0.00 seconds
-----
c input_v4/product/cnf_noALO_v4/8x8_138.cnf
c p 590
c cnf 2512
s SATISFIABLE
c process-time: 0.00 seconds
-----
c input_v4/product/cnf_noALO_v4/8x8_139.cnf
c p 800
c cnf 3509
s SATISFIABLE
c process-time: 0.00 seconds
-----
c input_v4/product/cnf_noALO_v4/8x8_140.cnf
c p 748
c cnf 3318
s SATISFIABLE
c process-time: 0.00 seconds
-----
c input_v4/product/cnf_noALO_v4/8x8_141.cnf
c p 800
c cnf 3653
s SATISFIABLE
c process-time: 0.00 seconds
-----
c input_v4/product/cnf_noALO_v4/8x8_142.cnf
c p 748
c cnf 3280
s SATISFIABLE
c process-time: 0.00 seconds
-----
c input_v4/product/cnf_noALO_v4/8x8_143.cnf
c p 852
c cnf 3920
s SATISFIABLE
c process-time: 0.00 seconds
-----
c input_v4/product/cnf_noALO_v4/8x8_144.cnf
c p 748
c cnf 3330
s SATISFIABLE
c process-time: 0.00 seconds
-----
c input_v4/product/cnf_noALO_v4/8x8_145.cnf
c p 800
c cnf 3639
s SATISFIABLE
c process-time: 0.00 seconds
-----
c input_v4/product/cnf_noALO_v4/9x9_120.cnf
c p 969
c cnf 4448
s SATISFIABLE
c process-time: 0.00 seconds
-----
c input_v4/product/cnf_noALO_v4/9x9_121.cnf
c p 1107
c cnf 5309
s SATISFIABLE
c process-time: 0.00 seconds
-----
c input_v4/product/cnf_noALO_v4/9x9_122.cnf
c p 1107
c cnf 5260
s SATISFIABLE
c process-time: 0.00 seconds
-----
c input_v4/product/cnf_noALO_v4/9x9_123.cnf
c p 1038
c cnf 4814
s SATISFIABLE
c process-time: 0.00 seconds
-----
c input_v4/product/cnf_noALO_v4/9x9_124.cnf
c p 1237
c cnf 5943
s SATISFIABLE
c process-time: 0.00 seconds
-----
c input_v4/product/cnf_noALO_v4/9x9_130.cnf
c p 1107
c cnf 5293
s SATISFIABLE
c process-time: 0.00 seconds
-----
c input_v4/product/cnf_noALO_v4/9x9_131.cnf
c p 1237
c cnf 5832
s SATISFIABLE
c process-time: 0.00 seconds
-----
c input_v4/product/cnf_noALO_v4/9x9_132.cnf
c p 1237
c cnf 5887
s SATISFIABLE
c process-time: 0.00 seconds
-----
c input_v4/product/cnf_noALO_v4/9x9_133.cnf
c p 1107
c cnf 5359
s SATISFIABLE
c process-time: 0.00 seconds
-----
c input_v4/product/cnf_noALO_v4/9x9_134.cnf
c p 969
c cnf 4523
s SATISFIABLE
c process-time: 0.00 seconds
-----
c input_v4/product/cnf_noALO_v4/9x9_135.cnf
c p 1038
c cnf 4915
s SATISFIABLE
c process-time: 0.00 seconds
-----
c input_v4/product/cnf_noALO_v4/9x9_136.cnf
c p 1038
c cnf 4930
s SATISFIABLE
c process-time: 0.00 seconds
-----
c input_v4/product/cnf_noALO_v4/9x9_137.cnf
c p 969
c cnf 4423
s SATISFIABLE
c process-time: 0.00 seconds
-----
c input_v4/product/cnf_noALO_v4/9x9_138.cnf
c p 1038
c cnf 4944
s SATISFIABLE
c process-time: 0.00 seconds
-----
c input_v4/product/cnf_noALO_v4/9x9_139.cnf
c p 1107
c cnf 5194
s SATISFIABLE
c process-time: 0.00 seconds
-----
c input_v4/product/cnf_noALO_v4/9x9_140.cnf
c p 1107
c cnf 5441
s SATISFIABLE
c process-time: 0.00 seconds
-----
c input_v4/product/cnf_noALO_v4/9x9_141.cnf
c p 969
c cnf 4435
s SATISFIABLE
c process-time: 0.00 seconds
-----
c input_v4/product/cnf_noALO_v4/9x9_142.cnf
c p 1237
c cnf 5906
s SATISFIABLE
c process-time: 0.00 seconds
-----
c input_v4/product/cnf_noALO_v4/9x9_143.cnf
c p 1038
c cnf 4959
s SATISFIABLE
c process-time: 0.00 seconds
-----
c input_v4/product/cnf_noALO_v4/9x9_144.cnf
c p 1107
c cnf 5309
s SATISFIABLE
c process-time: 0.00 seconds
-----
c input_v4/product/cnf_noALO_v4/9x9_145.cnf
c p 1038
c cnf 4872
s SATISFIABLE
c process-time: 0.00 seconds
-----
UNKNOWN
-----

